c --- [ banner ] -------------------------------------------------------------
c 
c CaDiCaL Radically Simplified CDCL SAT Solver
c Copyright (c) 2016-2021 A. Biere, M. Fleury, N. Froleyks
c 
c Version 1.5.2 a5f15211db36c3956764e18194dd5bd63bf3b5e6
c g++ (GCC) 9.3.0 -Wall -Wextra -O3 -DNDEBUG
c Fri Oct 21 01:27:37 EDT 2022 Linux gra-login3 3.10.0-1160.66.1.el7.x86_64 x86_64
c 
c --- [ limit ] --------------------------------------------------------------
c 
c setting conflict limit to 200000 conflicts (due to '200000')
c 
c --- [ parsing input ] ------------------------------------------------------
c 
c reading DIMACS file from '33.cubes7464.adj'
c opening file to read '33.cubes7464.adj'
c found 'p cnf 6160 1595481' header
c parsed 1595481 clauses in 17.16 seconds process time
c closing file '33.cubes7464.adj'
c after reading 1457566813 bytes 1390.0 MB
c 
c --- [ options ] ------------------------------------------------------------
c 
c all options are set to their default value
c 
c --- [ solving ] ------------------------------------------------------------
c 
c time measured in process time since initialization
c 
c  seconds    reductions  redundant   irredundant
c          MB     restarts       trail       variables
c            level   conflicts       glue         remaining
c 
c * 17.17 1380  0 0   0    0    0  0% 0 1595422 2315 38%
c { 17.68 1409  0 0   0    0    0  0% 0 1595422 2315 38%
c i 19.37 1468 1155 0   1  100   89 48% 23 1595422 2314 38%
c i 19.46 1470 1067 0   1  108   96 46% 22 1595422 2313 38%
c i 20.72 1486 713 0   5  165  147 40% 24 1595422 2310 38%
c i 20.86 1487 691 0   6  171  152 39% 24 1595422 2300 37%
c i 21.59 1494 602 0  14  199  177 38% 27 1595422 2292 37%
c i 21.70 1494 582 0  16  206  183 37% 27 1595422 2285 37%
c - 26.53 1373 423 1  39  301  263 34% 30 144580 2285 37%
c i 26.97 1373 384 1  50  341  299 34% 32 144580 2281 37%
c i 27.18 1373 363 1  57  367  321 33% 32 144580 2273 37%
c i 27.49 1373 297 1  67  466  412 32% 32 144580 2272 37%
c i 27.66 1373 290 1  74  490  434 32% 33 144580 2271 37%
c i 27.98 1373 240 1  82  621  529 31% 32 144580 2270 37%
c i 28.01 1373 213 1  82  708  590 31% 31 144580 2269 37%
c i 28.02 1373 213 1  82  710  591 31% 31 144580 2268 37%
c i 28.39 1373 179 1  88  900  741 31% 29 144580 2267 37%
c i 28.44 1373 166 1  88  986  803 31% 28 144580 2266 37%
c } 28.47 1373 164 1  88 1000  817 31% 28 144580 2266 37%
c [ 28.47 1373  0 1  88 1000  817  0% 0 144580 2266 37%
c 
c  seconds    reductions  redundant  irredundant
c          MB     restarts       trail      variables
c            level   conflicts       glue        remaining
c 
c - 28.73 1436  0 2  88 1000  671  0% 0 144388 2266 37%
c O 28.73 1436  5 2  88 1002  673 15% 5 144388 2266 37%
c i 28.95 1436 35 2  88 1120  771 33% 30 144388 2265 37%
c i 29.01 1436 32 2  88 1304  903 33% 28 144388 2264 37%
c i 29.30 1436 31 2  88 2011 1381 32% 27 144388 2263 37%
c - 29.44 1436 31 3  88 2043 1061 32% 27 144380 2263 37%
c i 29.57 1401 31 3  89 2057 1071 51% 27 144380 2262 37%
c ] 29.98 1401 28 3  89 3000 1557 54% 25 144380 2262 37%
c { 29.98 1401 164 3  89 3000 1557 85% 28 144380 2262 37%
c F 30.00 1401 163 3  89 3003 1560 85% 28 144380 2262 37%
c i 30.11 1401 158 3  89 3041 1582 83% 27 144380 2261 37%
c i 30.12 1401 158 3  89 3042 1582 83% 27 144380 2260 37%
c i 31.02 1401 140 3 134 3308 1805 74% 29 144380 2259 37%
c i 31.10 1401 139 3 142 3339 1834 73% 29 144380 2258 37%
c i 31.34 1401 139 3 149 3369 1860 72% 29 144380 2257 37%
c - 31.72 1338 136 4 168 3435 1337 71% 30 144366 2257 37%
c i 32.58 1338 130 4 224 3681 1544 67% 32 144366 2256 37%
c i 32.93 1338 114 4 232 4012 1783 64% 30 144366 2255 37%
c i 33.03 1338 104 4 232 4231 1919 63% 28 144366 2254 37%
c i 34.23 1338 99 4 286 4621 2257 60% 29 144366 2253 37%
c 
c  seconds    reductions  redundant   irredundant
c          MB     restarts       trail       variables
c            level   conflicts       glue         remaining
c 
c i 34.40 1338 99 4 299 4670 2299 60% 30 144366 2250 37%
c i 34.64 1338 99 4 307 4705 2330 59% 30 144366 2249 37%
c d 35.86 1338 97 4 359 5003 2595 58% 31 144334 2245 36%
c 2 35.89 1338 97 4 359 5003 3841 58% 31 144325 2245 36%
c p 39.55 1338 97 4 359 5003 7098 58% 31 144325 2209 36%
c d 39.77 1338 97 4 359 5003 7053 58% 31 144217 2208 36%
c - 40.14 1338 93 5 360 5175 2139 58% 31 144217 2208 36%
c # 41.66 1338 86 5 434 6004 2761 55% 31 144217 2208 36%
c } 42.01 1338 76 5 441 7001 3459 54% 31 144217 2208 36%
c [ 42.01 1338 28 5 441 7001 3459 54% 25 144217 2208 36%
c - 42.11 1338 28 6 442 7266 2514 53% 25 144217 2208 36%
c - 42.70 1339 32 7 443 9703 2874 50% 28 144217 2208 36%
c I 42.84 1338 32 7 443 10009 3051 50% 27 144217 2208 36%
c - 44.51 1339 61 8 445 12484 3540 49% 49 144217 2208 36%
c ] 46.42 1339 74 8 446 15007 5415 48% 58 144217 2208 36%
c { 46.42 1339 76 8 446 15007 5415 54% 31 144217 2208 36%
c 2 46.46 1339 76 8 446 15007 6740 54% 31 144216 2208 36%
c p 47.65 1338 76 8 446 15007 10081 54% 31 144216 2208 36%
c B 47.80 1339 76 8 446 15014 10088 54% 31 144216 2208 36%
c - 48.60 1338 72 9 477 15614 4234 53% 30 144216 2208 36%
c 
c  seconds    reductions   redundant   irredundant
c          MB     restarts        trail       variables
c            level    conflicts       glue         remaining
c 
c s 50.50 1339 56 9 536 18862 6279 52% 28 143171 2208 36%
c v 52.03 1338 56 9 536 18862 6279 52% 28 143166 2208 36%
c t 52.10 1338 56 9 536 18862 6267 52% 28 143161 2208 36%
c e 52.45 1340 56 9 536 18862 5808 52% 28 140199 754 12%
c s 52.52 1340 56 9 536 18862 5808 52% 28 140068 754 12%
c - 53.13 1339 55 10 536 19092 4139 81% 28 140068 754 12%
c W 53.85 1339 49 10 540 21016 5448 81% 26 140068 754 12%
c } 54.17 1340 46 10 541 22608 6612 81% 25 140068 754 12%
c 1 54.17 1340 46 10 541 22608 6612 81% 25 140068 754 12%
c 
c --- [ writing output ] -----------------------------------------------------
c 
c writing simplified CNF to DIMACS file 'simp/33.cubes7464.adj.simp1'
c * 54.17 1340 46 10 541 22608 6612 81% 25 140068 754 12%
c opening file to write 'simp/33.cubes7464.adj.simp1'
c writing 'p cnf 6160 140068' header
c closing file 'simp/33.cubes7464.adj.simp1'
c after writing 70086253 bytes 66.8 MB
c wrote 140068 clauses in 0.44 seconds process time
c 
c --- [ writing extension ] --------------------------------------------------
c 
c writing extension stack to 'simp/33.cubes7464.adj.ext1'
c opening file to write 'simp/33.cubes7464.adj.ext1'
c closing file 'simp/33.cubes7464.adj.ext1'
c after writing 92441 bytes 0.1 MB
c wrote 4103 witnesses in 0.00 seconds process time
c 
c --- [ result ] -------------------------------------------------------------
c 
s SATISFIABLE
c 
c --- [ run-time profiling ] -------------------------------------------------
c 
c process time taken by individual solving procedures
c (percentage relative to process time for solving)
c 
c        29.32   79.24% search
c        22.78   61.57% unstable
c        17.16   46.38% parse
c         7.68   20.76% simplify
c         5.92   15.99% stable
c         4.86   13.12% probe
c         1.57    4.25% vivify
c         0.62    1.68% elim
c         0.52    1.39% lucky
c         0.13    0.35% subsume
c         0.11    0.29% walk
c         0.05    0.13% ternary
c   =================================
c        37.01   67.76% solve
c 
c last line shows process time for solving
c (percentage relative to total process time)
c 
c --- [ statistics ] ---------------------------------------------------------
c 
c chronological:              4475        19.79 %  of conflicts
c conflicts:                 22608       610.93    per second
c decisions:                 74545      2014.39    per second
c eliminated:                 1454        23.60 %  of all variables
c fixed:                       803        13.04 %  of all variables
c learned:                   22071        97.62 %  per conflict
c learned_lits:            4654915       100.00 %  learned literals
c minimized:                     0         0.00 %  learned literals
c shrunken:                2841095        61.03 %  learned literals
c minishrunken:             287976         6.19 %  learned literals
c propagations:            3048450         0.08 M  per second
c reduced:                    8929        39.49 %  per conflict
c rephased:                      6      3768.00    interval
c restarts:                    541        41.79    interval
c stabilizing:                   2        44.26 %  of conflicts
c substituted:                   5         0.08 %  of all variables
c subsumed:                   7298         0.22 %  of all clauses
c strengthened:               2618         0.08 %  of all clauses
c ternary:                    2572         0.71 %  of resolved
c vivified:                     17         0.00 %  of all clauses
c walked:                        1     22608.00    interval
c weakened:                   3300         2.99    average size
c 
c seconds are measured in process time for solving
c 
c --- [ resources ] ----------------------------------------------------------
c 
c total process time since initialization:        54.61    seconds
c total real time since initialization:           62.78    seconds
c maximum resident set size of process:         1498.73    MB
c 
c --- [ shutting down ] ------------------------------------------------------
c 
c exit 10
WARNING! DIMACS header mismatch: wrong number of variables.
============================[ Problem Statistics ]=============================
|                                                                             |
|  Number of variables:          6120                                         |
|  Number of clauses:          140070                                         |
|  Parse time:                   0.99 s                                       |
|  Simplification time:          0.05 s                                       |
|                                                                             |
============================[ Search Statistics ]====================================================
| Conflicts |          ORIGINAL         |          LEARNT          | Num Sols |      SUBGRAPHS      |
|           |    Vars  Clauses Literals |    Limit  Clauses Lit/Cl |          | Canonical Noncanon. |
=====================================================================================================
|       128 |    6027   140098 14979975 |     2000      128    118 |        0 |        18        28 |
|       798 |    6027   140618 14990322 |     2000      798     47 |        0 |       271       548 |
|      1040 |    6027   140635 14990741 |     2000     1040     66 |        0 |       273       565 |
|      1400 |    6027   140658 14991287 |     2000     1400     82 |        0 |       282       588 |
|      1991 |    6027   140743 14992646 |     2000     1991     85 |        0 |       310       673 |
|      2776 |    6027   140769 14992892 |     3601     1777     53 |        0 |       313       699 |
|      7384 |    6027   144238 15054107 |     5001     4585     25 |        0 |      1756      4168 |
|      9230 |    6027   144376 15056804 |     6311     3941     48 |        0 |      1809      4306 |
|     16623 |    6027   149207 15128046 |     8786     4409     13 |        0 |      3329      9137 |
|     31105 |    6027   159845 15306626 |    11200     9505     36 |        0 |      7658     19775 |
|     59547 |    6027   182521 15625342 |    16015    11962     28 |        0 |     15978     42451 |
|     75737 |    6027   190062 15736227 |    18417    11554     35 |        0 |     18579     49992 |
|     94097 |    6027   195448 15811431 |    20824    10921     18 |        0 |     20505     55378 |
|    124264 |    6027   206154 15959003 |    23210    19674     30 |        0 |     24771     66084 |
|    188959 |    6027   241657 16431474 |    29216    20375     29 |        0 |     37653    101587 |
=====================================================================================================
Number of solutions   : 0
Canonical subgraphs   : 43725          (33 /sec)
          order  3    : 1              (125000 /sec)
          order  4    : 1              (250000 /sec)
          order  5    : 1              (111111 /sec)
          order  6    : 1              (26316 /sec)
          order  7    : 1              (4132 /sec)
          order  8    : 2              (795 /sec)
          order  9    : 6              (266 /sec)
          order 10    : 21             (160 /sec)
          order 11    : 62             (121 /sec)
          order 12    : 258            (88 /sec)
          order 13    : 753            (65 /sec)
          order 14    : 7376           (46 /sec)
          order 15    : 33739          (33 /sec)
          order 16    : 587            (18 /sec)
          order 17    : 239            (15 /sec)
          order 18    : 491            (11 /sec)
          order 19    : 168            (11 /sec)
          order 20    : 18             (13 /sec)
          order 21    : 0              (-nan /sec)
          order 22    : 0              (-nan /sec)
Noncanonical subgraphs: 119549         (286 /sec)
          order  3    : 0              (-nan /sec)
          order  4    : 0              (-nan /sec)
          order  5    : 0              (-nan /sec)
          order  6    : 0              (-nan /sec)
          order  7    : 0              (-nan /sec)
          order  8    : 0              (-nan /sec)
          order  9    : 0              (-nan /sec)
          order 10    : 0              (-nan /sec)
          order 11    : 0              (-nan /sec)
          order 12    : 0              (-nan /sec)
          order 13    : 1929           (17794 /sec)
          order 14    : 17574          (2256 /sec)
          order 15    : 36351          (1105 /sec)
          order 16    : 61729          (176 /sec)
          order 17    : 631            (115 /sec)
          order 18    : 1240           (68 /sec)
          order 19    : 95             (33 /sec)
          order 20    : 0              (-nan /sec)
          order 21    : 0              (-nan /sec)
Canonicity checking   : 1305.66 s
Noncanonicity checking: 418.262 s
Total canonicity time : 1723.93 s
database reductions   : 25
restarts              : 542
conflicts             : 237430         (134 /sec)
decisions             : 440729         (0.00 % random) (248 /sec)
propagations          : 8966873        (5054 /sec)
conflict literals     : 15060054       (51.15 % deleted)
actual reward         : 0.231022
Memory used           : 231.00 MB
CPU time              : 1774.3 s

UNSATISFIABLE
